1588094
0,33,76,65,8,36,25,37,40,103,101,53,57,99,22,91,55,102,29,5,94,31,84,60,42,43,19,82,28,45,83,50,1,58,80,15,106,93,24,2,62,78,66,3,73,16,79,21,63,9,48,88,90,10,96,70,46,13,38,30,71,74,56,85,26,68,69,7,35,75,49,59,39,67,54,41,32,64,27,11,72,61,92,95,105,77,107,6,86,87,17,98,18,104,12,20,47,52,14,108,23,89,51,81,97,100,44,4,34
